letting n =  10
letting blocks =  [[1, 1], [1, 2], [1, 5], [1, 6], [1, 8], [1, 10], [2, 1], [2, 4], [2, 5], [2, 6], [2, 8], [2, 9], [3, 3], [3, 7], [4, 2], [6, 3], [6, 4], [6, 7], [6, 8], [7, 1], [7, 3], [7, 7], [7, 8], [8, 5], [8, 7], [8, 9], [9, 3], [9, 4], [9, 7], [10, 3], [10, 4], [10, 6], [10, 7], [10, 8]]
